(set-info :smt-lib-version 2.6)
(set-logic UF)
(set-info :source |Benchmarks from the paper: "Extending Sledgehammer with SMT Solvers" by Jasmin Blanchette, Sascha Bohme, and Lawrence C. Paulson, CADE 2011.  Translated to SMT2 by Andrew Reynolds and Morgan Deters.|)
(set-info :category "industrial")
(set-info :status unsat)
(declare-sort S1 0)
(declare-sort S2 0)
(declare-sort S3 0)
(declare-sort S4 0)
(declare-sort S5 0)
(declare-sort S6 0)
(declare-sort S7 0)
(declare-sort S8 0)
(declare-sort S9 0)
(declare-sort S10 0)
(declare-sort S11 0)
(declare-sort S12 0)
(declare-fun f1 () S1)
(declare-fun f2 () S1)
(declare-fun f3 (S2) S1)
(declare-fun f4 (S3 S2) S2)
(declare-fun f5 (S4 S2) S3)
(declare-fun f6 () S4)
(declare-fun f7 () S4)
(declare-fun f8 () S3)
(declare-fun f9 () S3)
(declare-fun f10 () S3)
(declare-fun f11 () S2)
(declare-fun f12 () S2)
(declare-fun f13 () S2)
(declare-fun f14 () S2)
(declare-fun f15 (S2) S1)
(declare-fun f16 (S5 S6) S6)
(declare-fun f17 (S7 S6) S5)
(declare-fun f18 () S7)
(declare-fun f19 () S6)
(declare-fun f20 (S8 S2) S6)
(declare-fun f21 () S8)
(declare-fun f22 () S7)
(declare-fun f23 (S9 S2) S1)
(declare-fun f24 (S2) S9)
(declare-fun f25 () S2)
(declare-fun f26 (S10 S6) S2)
(declare-fun f27 (S11 S2) S10)
(declare-fun f28 () S11)
(declare-fun f29 () S2)
(declare-fun f30 () S4)
(declare-fun f31 () S2)
(declare-fun f32 () S7)
(declare-fun f33 () S6)
(declare-fun f34 (S6 S6) S1)
(declare-fun f35 (S2) S9)
(declare-fun f36 (S12 S2) S9)
(declare-fun f37 (S2) S12)
(declare-fun f38 (S2) S9)
(declare-fun f39 () S4)
(declare-fun f40 () S2)
(declare-fun f41 (S2) S9)
(declare-fun f42 (S6 S6) S1)
(declare-fun f43 () S7)
(assert (not (= f1 f2)))
(assert (not (= (f3 (f4 (f5 f6 (f4 (f5 f7 (f4 f8 (f4 f9 (f4 f9 (f4 f10 f11))))) f12)) f13)) f1)))
(assert (= (f3 (f4 (f5 f7 (f4 (f5 f6 (f4 (f5 f7 (f4 f8 (f4 f9 (f4 f9 (f4 f10 f11))))) f12)) f13)) f14)) f1))
(assert (= f14 f13))
(assert (= f14 f13))
(assert (= (f3 (f4 (f5 f7 (f4 (f5 f6 (f4 (f5 f7 (f4 f8 (f4 f9 (f4 f9 (f4 f10 f11))))) f12)) f13)) f14)) f1))
(assert (= (f15 (f4 (f5 f6 (f4 (f5 f7 (f4 f8 (f4 f9 (f4 f9 (f4 f10 f11))))) f12)) f13)) f1))
(assert (forall ((?v0 S2) (?v1 S2)) (=> (= (f3 ?v0) f1) (=> (= (f3 ?v1) f1) (= (f3 (f4 (f5 f7 ?v0) ?v1)) f1)))))
(assert (forall ((?v0 S2)) (= (f4 (f5 f6 f13) (f4 f8 ?v0)) (f4 f8 (f4 (f5 f6 (f4 f10 f11)) ?v0)))))
(assert (forall ((?v0 S2)) (= (f4 (f5 f6 (f4 f8 ?v0)) f13) (f4 f8 (f4 (f5 f6 ?v0) (f4 f10 f11))))))
(assert (= (f4 (f5 f6 f13) f13) (f4 f8 (f4 f9 (f4 f10 f11)))))
(assert (= (f4 (f5 f6 f13) f13) (f4 f8 (f4 f9 (f4 f10 f11)))))
(assert (= (f16 (f17 f18 f19) f19) (f20 f21 (f4 f9 (f4 f10 f11)))))
(assert (forall ((?v0 S2)) (= (f4 (f5 f7 ?v0) (f4 f8 (f4 f9 (f4 f10 f11)))) (f4 (f5 f6 ?v0) ?v0))))
(assert (forall ((?v0 S2)) (= (f4 (f5 f7 ?v0) (f4 f8 (f4 f9 (f4 f10 f11)))) (f4 (f5 f6 ?v0) ?v0))))
(assert (forall ((?v0 S6)) (= (f16 (f17 f22 ?v0) (f20 f21 (f4 f9 (f4 f10 f11)))) (f16 (f17 f18 ?v0) ?v0))))
(assert (forall ((?v0 S2)) (= (f4 (f5 f7 (f4 f8 (f4 f9 (f4 f10 f11)))) ?v0) (f4 (f5 f6 ?v0) ?v0))))
(assert (forall ((?v0 S2)) (= (f4 (f5 f7 (f4 f8 (f4 f9 (f4 f10 f11)))) ?v0) (f4 (f5 f6 ?v0) ?v0))))
(assert (forall ((?v0 S6)) (= (f16 (f17 f22 (f20 f21 (f4 f9 (f4 f10 f11)))) ?v0) (f16 (f17 f18 ?v0) ?v0))))
(assert (forall ((?v0 S2)) (= (f4 (f5 f7 (f4 (f5 f6 f13) f13)) (f4 f8 ?v0)) (f4 f8 (f4 f9 ?v0)))))
(assert (= (f23 (f24 f14) (f4 (f5 f6 (f4 (f5 f7 (f4 f8 (f4 f9 (f4 f9 (f4 f10 f11))))) f12)) f13)) f1))
(assert (forall ((?v0 S2) (?v1 S2)) (= (f4 (f5 f7 (f4 f10 ?v0)) ?v1) (f4 (f5 f6 (f4 f9 (f4 (f5 f7 ?v0) ?v1))) ?v1))))
(assert (= f13 (f4 f8 (f4 f10 f11))))
(assert (forall ((?v0 S2) (?v1 S2)) (or (= (f23 (f24 ?v0) ?v1) f1) (or (= ?v0 ?v1) (= (f23 (f24 ?v1) ?v0) f1)))))
(assert (forall ((?v0 S2) (?v1 S2)) (= (= (f23 (f24 (f4 f8 ?v0)) (f4 f8 ?v1)) f1) (= (f23 (f24 ?v0) ?v1) f1))))
(assert (forall ((?v0 S2) (?v1 S2)) (= (= (f23 (f24 (f4 f10 ?v0)) (f4 f10 ?v1)) f1) (= (f23 (f24 ?v0) ?v1) f1))))
(assert (forall ((?v0 S2) (?v1 S2)) (= (= (f23 (f24 (f4 f10 ?v0)) (f4 f10 ?v1)) f1) (= (f23 (f24 ?v0) ?v1) f1))))
(assert (= (= (f23 (f24 f11) f11) f1) false))
(assert (forall ((?v0 S2) (?v1 S2)) (= (= (f23 (f24 (f4 f9 ?v0)) (f4 f9 ?v1)) f1) (= (f23 (f24 ?v0) ?v1) f1))))
(assert (forall ((?v0 S2) (?v1 S2)) (= (= (f23 (f24 (f4 f9 ?v0)) (f4 f9 ?v1)) f1) (= (f23 (f24 ?v0) ?v1) f1))))
(assert (forall ((?v0 S2) (?v1 S2)) (= (= (f23 (f24 (f4 f8 ?v0)) (f4 f8 ?v1)) f1) (= (f23 (f24 ?v0) ?v1) f1))))
(assert (forall ((?v0 S2) (?v1 S2) (?v2 S2)) (=> (= (f23 (f24 ?v0) ?v1) f1) (= (f23 (f24 (f4 (f5 f6 ?v0) ?v2)) (f4 (f5 f6 ?v1) ?v2)) f1))))
(assert (forall ((?v0 S2)) (= (= (f23 (f24 (f4 f10 ?v0)) f11) f1) (= (f23 (f24 ?v0) f11) f1))))
(assert (forall ((?v0 S2) (?v1 S2)) (= (= (f23 (f24 (f4 f10 ?v0)) (f4 f9 ?v1)) f1) (= (f23 (f24 ?v0) ?v1) f1))))
(assert (forall ((?v0 S2) (?v1 S2)) (= (= (f23 (f24 (f4 f10 ?v0)) (f4 f9 ?v1)) f1) (= (f23 (f24 ?v0) ?v1) f1))))
(assert (forall ((?v0 S2)) (= (= (f23 (f24 (f4 f9 ?v0)) f11) f1) (= (f23 (f24 ?v0) f11) f1))))
(assert (forall ((?v0 S2)) (let ((?v_0 (f24 f11))) (= (= (f23 ?v_0 (f4 f9 ?v0)) f1) (= (f23 ?v_0 ?v0) f1)))))
(assert (forall ((?v0 S2) (?v1 S2)) (let ((?v_0 (f24 ?v0))) (= (= (f23 ?v_0 (f4 (f5 f6 ?v1) f13)) f1) (or (= (f23 ?v_0 ?v1) f1) (= ?v0 ?v1))))))
(assert (forall ((?v0 S2)) (= (= (f23 (f24 (f4 f8 ?v0)) f13) f1) (= (f23 (f24 ?v0) (f4 f10 f11)) f1))))
(assert (forall ((?v0 S2)) (= (= (f23 (f24 f13) (f4 f8 ?v0)) f1) (= (f23 (f24 (f4 f10 f11)) ?v0) f1))))
(assert (forall ((?v0 S2) (?v1 S2)) (= (= (f4 f8 ?v0) (f4 f8 ?v1)) (= ?v0 ?v1))))
(assert (forall ((?v0 S2) (?v1 S2)) (let ((?v_0 (f4 f8 ?v0))) (= (= ?v_0 ?v1) (= ?v1 ?v_0)))))
(assert (forall ((?v0 S2) (?v1 S6)) (let ((?v_0 (f20 f21 ?v0))) (= (= ?v_0 ?v1) (= ?v1 ?v_0)))))
(assert (forall ((?v0 S2) (?v1 S2)) (= (= (f4 f10 ?v0) (f4 f10 ?v1)) (= ?v0 ?v1))))
(assert (= (= f11 f11) true))
(assert (forall ((?v0 S2) (?v1 S2)) (= (= (f4 f9 ?v0) (f4 f9 ?v1)) (= ?v0 ?v1))))
(assert (forall ((?v0 S2) (?v1 S2) (?v2 S2)) (let ((?v_0 (f5 f7 ?v0))) (= (f4 (f5 f7 (f4 ?v_0 ?v1)) ?v2) (f4 ?v_0 (f4 (f5 f7 ?v1) ?v2))))))
(assert (forall ((?v0 S2) (?v1 S2)) (= (f4 (f5 f7 ?v0) ?v1) (f4 (f5 f7 ?v1) ?v0))))
(assert (forall ((?v0 S2)) (= (f4 f8 ?v0) ?v0)))
(assert (forall ((?v0 S2) (?v1 S2) (?v2 S2)) (let ((?v_0 (f5 f6 ?v0))) (= (f4 (f5 f6 (f4 ?v_0 ?v1)) ?v2) (f4 ?v_0 (f4 (f5 f6 ?v1) ?v2))))))
(assert (forall ((?v0 S2) (?v1 S2) (?v2 S2)) (let ((?v_1 (f5 f6 ?v0)) (?v_0 (f5 f6 ?v1))) (= (f4 ?v_1 (f4 ?v_0 ?v2)) (f4 ?v_0 (f4 ?v_1 ?v2))))))
(assert (forall ((?v0 S2) (?v1 S2)) (= (f4 (f5 f6 ?v0) ?v1) (f4 (f5 f6 ?v1) ?v0))))
(assert (forall ((?v0 S2)) (= (= (f4 f10 ?v0) f11) false)))
(assert (forall ((?v0 S2)) (= (= f11 (f4 f10 ?v0)) false)))
(assert (forall ((?v0 S2) (?v1 S2)) (= (= (f4 f10 ?v0) (f4 f9 ?v1)) false)))
(assert (forall ((?v0 S2) (?v1 S2)) (= (= (f4 f9 ?v0) (f4 f10 ?v1)) false)))
(assert (forall ((?v0 S2)) (= (= (f4 f9 ?v0) f11) (= ?v0 f11))))
(assert (forall ((?v0 S2)) (= (= f11 (f4 f9 ?v0)) (= f11 ?v0))))
(assert (= (f4 f9 f11) f11))
(assert (forall ((?v0 S2)) (= (f4 (f5 f7 f11) ?v0) f11)))
(assert (forall ((?v0 S2) (?v1 S2)) (= (f4 (f5 f7 (f4 f9 ?v0)) ?v1) (f4 f9 (f4 (f5 f7 ?v0) ?v1)))))
(assert (forall ((?v0 S2)) (= (f4 (f5 f6 ?v0) f11) ?v0)))
(assert (forall ((?v0 S2)) (= (f4 (f5 f6 f11) ?v0) ?v0)))
(assert (forall ((?v0 S2) (?v1 S2)) (= (f4 (f5 f6 (f4 f9 ?v0)) (f4 f9 ?v1)) (f4 f9 (f4 (f5 f6 ?v0) ?v1)))))
(assert (forall ((?v0 S2)) (= (f4 f9 ?v0) (f4 (f5 f6 ?v0) ?v0))))
(assert (forall ((?v0 S2)) (= (f4 (f5 f7 ?v0) f13) ?v0)))
(assert (forall ((?v0 S2)) (= (f4 (f5 f7 f13) ?v0) ?v0)))
(assert (forall ((?v0 S2) (?v1 S2)) (= (f4 (f5 f7 (f4 f8 ?v0)) (f4 f8 ?v1)) (f4 f8 (f4 (f5 f7 ?v0) ?v1)))))
(assert (forall ((?v0 S2) (?v1 S2) (?v2 S2)) (= (f4 (f5 f7 (f4 (f5 f6 ?v0) ?v1)) ?v2) (f4 (f5 f6 (f4 (f5 f7 ?v0) ?v2)) (f4 (f5 f7 ?v1) ?v2)))))
(assert (forall ((?v0 S2) (?v1 S2) (?v2 S2)) (let ((?v_0 (f5 f7 ?v0))) (= (f4 ?v_0 (f4 (f5 f6 ?v1) ?v2)) (f4 (f5 f6 (f4 ?v_0 ?v1)) (f4 ?v_0 ?v2))))))
(assert (forall ((?v0 S2) (?v1 S2)) (= (f4 (f5 f6 (f4 f8 ?v0)) (f4 f8 ?v1)) (f4 f8 (f4 (f5 f6 ?v0) ?v1)))))
(assert (forall ((?v0 S2) (?v1 S2) (?v2 S2)) (let ((?v_0 (f4 f8 ?v2))) (= (f4 (f5 f7 (f4 (f5 f6 ?v0) ?v1)) ?v_0) (f4 (f5 f6 (f4 (f5 f7 ?v0) ?v_0)) (f4 (f5 f7 ?v1) ?v_0))))))
(assert (forall ((?v0 S6) (?v1 S6) (?v2 S2)) (let ((?v_0 (f20 f21 ?v2))) (= (f16 (f17 f22 (f16 (f17 f18 ?v0) ?v1)) ?v_0) (f16 (f17 f18 (f16 (f17 f22 ?v0) ?v_0)) (f16 (f17 f22 ?v1) ?v_0))))))
(assert (forall ((?v0 S2) (?v1 S2) (?v2 S2)) (let ((?v_0 (f5 f7 (f4 f8 ?v0)))) (= (f4 ?v_0 (f4 (f5 f6 ?v1) ?v2)) (f4 (f5 f6 (f4 ?v_0 ?v1)) (f4 ?v_0 ?v2))))))
(assert (forall ((?v0 S2) (?v1 S6) (?v2 S6)) (let ((?v_0 (f17 f22 (f20 f21 ?v0)))) (= (f16 ?v_0 (f16 (f17 f18 ?v1) ?v2)) (f16 (f17 f18 (f16 ?v_0 ?v1)) (f16 ?v_0 ?v2))))))
(assert (forall ((?v0 S2)) (= (f4 (f5 f6 (f4 f8 f11)) ?v0) ?v0)))
(assert (forall ((?v0 S2)) (= (f4 (f5 f6 ?v0) (f4 f8 f11)) ?v0)))
(assert (forall ((?v0 S2) (?v1 S2) (?v2 S2)) (= (f4 (f5 f7 (f4 f8 ?v0)) (f4 (f5 f7 (f4 f8 ?v1)) ?v2)) (f4 (f5 f7 (f4 f8 (f4 (f5 f7 ?v0) ?v1))) ?v2))))
(assert (forall ((?v0 S2) (?v1 S2)) (= (f4 (f5 f7 (f4 f8 ?v0)) (f4 f8 ?v1)) (f4 f8 (f4 (f5 f7 ?v0) ?v1)))))
(assert (forall ((?v0 S2) (?v1 S2)) (= (f4 f8 (f4 (f5 f7 ?v0) ?v1)) (f4 (f5 f7 (f4 f8 ?v0)) (f4 f8 ?v1)))))
(assert (forall ((?v0 S2) (?v1 S2) (?v2 S2)) (= (f4 (f5 f6 (f4 f8 ?v0)) (f4 (f5 f6 (f4 f8 ?v1)) ?v2)) (f4 (f5 f6 (f4 f8 (f4 (f5 f6 ?v0) ?v1))) ?v2))))
(assert (forall ((?v0 S2) (?v1 S2)) (= (f4 (f5 f6 (f4 f8 ?v0)) (f4 f8 ?v1)) (f4 f8 (f4 (f5 f6 ?v0) ?v1)))))
(assert (forall ((?v0 S2) (?v1 S2)) (= (f4 f8 (f4 (f5 f6 ?v0) ?v1)) (f4 (f5 f6 (f4 f8 ?v0)) (f4 f8 ?v1)))))
(assert (forall ((?v0 S2) (?v1 S2)) (= (f4 (f5 f6 (f4 f10 ?v0)) (f4 f9 ?v1)) (f4 f10 (f4 (f5 f6 ?v0) ?v1)))))
(assert (forall ((?v0 S2) (?v1 S2)) (= (f4 (f5 f6 (f4 f9 ?v0)) (f4 f10 ?v1)) (f4 f10 (f4 (f5 f6 ?v0) ?v1)))))
(assert (forall ((?v0 S2)) (= (f4 f10 ?v0) (f4 (f5 f6 (f4 (f5 f6 f13) ?v0)) ?v0))))
(assert (forall ((?v0 S2)) (let ((?v_0 (f4 f8 ?v0))) (= (f4 f8 (f4 f10 ?v0)) (f4 (f5 f6 (f4 (f5 f6 f13) ?v_0)) ?v_0)))))
(assert (forall ((?v0 S2)) (= (f4 (f5 f7 (f4 f8 (f4 f10 f11))) ?v0) ?v0)))
(assert (forall ((?v0 S2)) (= (f4 (f5 f7 ?v0) (f4 f8 (f4 f10 f11))) ?v0)))
(assert (= (f4 f8 (f4 f10 f11)) f13))
(assert (= (f20 f21 (f4 f10 f11)) f19))
(assert (= (f4 f8 (f4 f10 f11)) f13))
(assert (= (f23 (f24 f25) (f4 (f5 f6 (f4 (f5 f7 (f4 f8 (f4 f9 (f4 f9 (f4 f10 f11))))) f12)) f13)) f1))
(assert (= (f15 (f4 f8 (f4 f9 (f4 f10 f11)))) f1))
(assert (let ((?v_0 (f4 f9 (f4 f10 f11)))) (= (f4 (f5 f6 (f26 (f27 f28 f29) (f20 f21 ?v_0))) f13) (f4 (f5 f7 (f4 (f5 f6 (f4 (f5 f7 (f4 f8 (f4 f9 ?v_0))) f12)) f13)) f14))))
(assert (= f13 (f4 f8 (f4 f10 f11))))
(assert (forall ((?v0 S2) (?v1 S2) (?v2 S9)) (=> (= (f23 (f24 ?v0) ?v1) f1) (=> (= (f23 ?v2 (f4 (f5 f6 ?v0) f13)) f1) (=> (forall ((?v3 S2)) (=> (= (f23 (f24 ?v0) ?v3) f1) (=> (= (f23 ?v2 ?v3) f1) (= (f23 ?v2 (f4 (f5 f6 ?v3) f13)) f1)))) (= (f23 ?v2 ?v1) f1))))))
(assert (= (f4 (f5 f30 (f4 f8 f31)) (f4 (f5 f6 (f4 (f5 f7 (f4 f8 (f4 f9 (f4 f9 (f4 f10 f11))))) f12)) f13)) f13))
(assert (forall ((?v0 S2) (?v1 S2)) (let ((?v_1 (f20 f21 ?v0)) (?v_0 (f20 f21 ?v1))) (= (f16 (f17 f18 ?v_1) ?v_0) (ite (= (f23 (f24 ?v0) f11) f1) ?v_0 (ite (= (f23 (f24 ?v1) f11) f1) ?v_1 (f20 f21 (f4 (f5 f6 ?v0) ?v1))))))))
(assert (forall ((?v0 S6)) (= (f16 (f17 f22 (f20 f21 (f4 f9 (f4 f10 f11)))) ?v0) (f16 (f17 f18 ?v0) ?v0))))
(assert (forall ((?v0 S6)) (= (f16 (f17 f22 ?v0) (f20 f21 (f4 f9 (f4 f10 f11)))) (f16 (f17 f18 ?v0) ?v0))))
(assert (= (f16 (f17 f18 f19) f19) (f20 f21 (f4 f9 (f4 f10 f11)))))
(assert (=> (forall ((?v0 S2)) (let ((?v_0 (f4 f9 (f4 f10 f11)))) (=> (= (f4 (f5 f6 (f26 (f27 f28 f29) (f20 f21 ?v_0))) f13) (f4 (f5 f7 (f4 (f5 f6 (f4 (f5 f7 (f4 f8 (f4 f9 ?v_0))) f12)) f13)) ?v0)) false))) false))
(assert (= (= f31 f31) true))
(assert (forall ((?v0 S2) (?v1 S6) (?v2 S6)) (let ((?v_0 (f27 f28 ?v0))) (= (f26 (f27 f28 (f26 ?v_0 ?v1)) ?v2) (f26 ?v_0 (f16 (f17 f22 ?v1) ?v2))))))
(assert (= (= (f23 (f24 f31) f25) f1) true))
(assert (= (f26 (f27 f28 f25) (f20 f21 (f4 f9 (f4 f10 f11)))) f25))
(assert (= (f16 (f17 f32 f33) (f20 f21 (f4 f9 (f4 f10 f11)))) f33))
(assert (forall ((?v0 S2)) (= (= (f26 (f27 f28 ?v0) (f20 f21 (f4 f9 (f4 f10 f11)))) f25) (= ?v0 f25))))
(assert (= (f4 f10 f31) f31))
(assert (forall ((?v0 S2)) (= (= f31 (f4 f10 ?v0)) (= f31 ?v0))))
(assert (forall ((?v0 S2)) (= (= (f4 f10 ?v0) f31) (= ?v0 f31))))
(assert (= (= f31 f11) false))
(assert (= (= f11 f31) false))
(assert (forall ((?v0 S2)) (= (= f31 (f4 f9 ?v0)) false)))
(assert (forall ((?v0 S2)) (= (= (f4 f9 ?v0) f31) false)))
(assert (forall ((?v0 S2) (?v1 S6) (?v2 S6)) (let ((?v_0 (f27 f28 ?v0))) (= (f26 ?v_0 (f16 (f17 f18 ?v1) ?v2)) (f4 (f5 f7 (f26 ?v_0 ?v1)) (f26 ?v_0 ?v2))))))
(assert (= (= (f23 (f24 f31) f31) f1) false))
(assert (forall ((?v0 S2)) (= (= (f4 (f5 f6 ?v0) ?v0) f25) (= ?v0 f25))))
(assert (= f11 f25))
(assert (not (= f25 f13)))
(assert (forall ((?v0 S2)) (= (f4 (f5 f6 f25) ?v0) ?v0)))
(assert (forall ((?v0 S2)) (= (f4 (f5 f6 ?v0) f25) ?v0)))
(assert (not (= (f4 f8 f11) (f4 f8 f31))))
(assert (forall ((?v0 S2) (?v1 S2)) (= (= (f4 (f5 f6 (f4 (f5 f7 ?v0) ?v0)) (f4 (f5 f7 ?v1) ?v1)) f25) (and (= ?v0 f25) (= ?v1 f25)))))
(assert (forall ((?v0 S2) (?v1 S2)) (= (= (f34 (f20 f21 ?v0) (f20 f21 ?v1)) f1) (ite (= (f23 (f24 ?v0) ?v1) f1) (= (f23 (f24 f11) ?v1) f1) false))))
(assert (= f25 (f4 f8 f11)))
(assert (forall ((?v0 S2) (?v1 S2)) (let ((?v_0 (f24 f25))) (=> (= (f23 ?v_0 ?v0) f1) (=> (= (f23 ?v_0 (f4 (f5 f7 ?v0) ?v1)) f1) (= (f23 ?v_0 ?v1) f1))))))
(assert (forall ((?v0 S2)) (not (= (f23 (f24 (f26 (f27 f28 ?v0) (f20 f21 (f4 f9 (f4 f10 f11))))) f25) f1))))
(assert (forall ((?v0 S2)) (= (= (f23 (f24 f25) (f26 (f27 f28 ?v0) (f20 f21 (f4 f9 (f4 f10 f11))))) f1) (not (= ?v0 f25)))))
(assert (forall ((?v0 S2) (?v1 S2)) (let ((?v_0 (f20 f21 (f4 f9 (f4 f10 f11))))) (= (= (f4 (f5 f6 (f26 (f27 f28 ?v0) ?v_0)) (f26 (f27 f28 ?v1) ?v_0)) f25) (and (= ?v0 f25) (= ?v1 f25))))))
(assert (forall ((?v0 S6)) (= (f26 (f27 f28 (f4 f8 f31)) (f16 (f17 f22 (f20 f21 (f4 f9 (f4 f10 f11)))) ?v0)) f13)))
(assert (forall ((?v0 S2) (?v1 S2)) (let ((?v_0 (f20 f21 (f4 f9 (f4 f10 f11))))) (not (= (f23 (f24 (f4 (f5 f6 (f26 (f27 f28 ?v0) ?v_0)) (f26 (f27 f28 ?v1) ?v_0))) f25) f1)))))
(assert (forall ((?v0 S2) (?v1 S2)) (let ((?v_0 (f20 f21 (f4 f9 (f4 f10 f11))))) (= (= (f23 (f24 f25) (f4 (f5 f6 (f26 (f27 f28 ?v0) ?v_0)) (f26 (f27 f28 ?v1) ?v_0))) f1) (or (not (= ?v0 f25)) (not (= ?v1 f25)))))))
(assert (forall ((?v0 S2)) (= (f26 (f27 f28 ?v0) (f20 f21 (f4 f10 (f4 f10 f11)))) (f4 (f5 f7 (f4 (f5 f7 ?v0) ?v0)) ?v0))))
(assert (forall ((?v0 S6)) (= (f16 (f17 f32 ?v0) (f20 f21 (f4 f10 (f4 f10 f11)))) (f16 (f17 f22 (f16 (f17 f22 ?v0) ?v0)) ?v0))))
(assert (forall ((?v0 S2) (?v1 S6)) (let ((?v_1 (f20 f21 (f4 f9 (f4 f10 f11)))) (?v_0 (f27 f28 ?v0))) (= (f26 ?v_0 (f16 (f17 f22 ?v_1) ?v1)) (f26 (f27 f28 (f26 ?v_0 ?v1)) ?v_1)))))
(assert (forall ((?v0 S6) (?v1 S6)) (let ((?v_1 (f20 f21 (f4 f9 (f4 f10 f11)))) (?v_0 (f17 f32 ?v0))) (= (f16 ?v_0 (f16 (f17 f22 ?v_1) ?v1)) (f16 (f17 f32 (f16 ?v_0 ?v1)) ?v_1)))))
(assert (forall ((?v0 S2)) (let ((?v_2 (f4 f9 (f4 f10 f11)))) (let ((?v_0 (f20 f21 ?v_2)) (?v_1 (f27 f28 ?v0))) (= (f26 (f27 f28 (f26 ?v_1 ?v_0)) ?v_0) (f26 ?v_1 (f20 f21 (f4 f9 ?v_2))))))))
(assert (forall ((?v0 S2)) (= (= (f23 (f24 (f4 f10 ?v0)) f31) f1) (= (f23 (f24 ?v0) f31) f1))))
(assert (forall ((?v0 S2)) (let ((?v_0 (f24 f31))) (= (= (f23 ?v_0 (f4 f10 ?v0)) f1) (= (f23 ?v_0 ?v0) f1)))))
(assert (= (= (f23 (f24 f11) f31) f1) false))
(assert (= (= (f23 (f24 f31) f11) f1) true))
(assert (forall ((?v0 S2)) (let ((?v_0 (f24 f31))) (= (= (f23 ?v_0 (f4 f9 ?v0)) f1) (= (f23 ?v_0 ?v0) f1)))))
(assert (forall ((?v0 S2) (?v1 S2)) (not (= (f23 (f24 (f4 (f5 f6 (f4 (f5 f7 ?v0) ?v0)) (f4 (f5 f7 ?v1) ?v1))) f25) f1))))
(assert (forall ((?v0 S2) (?v1 S2)) (= (= (f23 (f24 f25) (f4 (f5 f6 (f4 (f5 f7 ?v0) ?v0)) (f4 (f5 f7 ?v1) ?v1))) f1) (or (not (= ?v0 f25)) (not (= ?v1 f25))))))
(assert (forall ((?v0 S2)) (= (= (f23 (f24 (f4 (f5 f6 ?v0) ?v0)) f25) f1) (= (f23 (f24 ?v0) f25) f1))))
(assert (= (f4 f8 f11) f25))
(assert (= (f4 f8 f11) f25))
(assert (= (f20 f21 f11) f33))
(assert (forall ((?v0 S2)) (= (= (f23 (f24 (f4 f10 ?v0)) f25) f1) (= (f23 (f24 ?v0) f25) f1))))
(assert (= (= (f23 (f24 f11) f25) f1) false))
(assert (forall ((?v0 S2)) (= (= (f23 (f24 (f4 f9 ?v0)) f25) f1) (= (f23 (f24 ?v0) f25) f1))))
(assert (= f25 (f4 f8 f11)))
(assert (= (f23 (f24 f25) f13) f1))
(assert (forall ((?v0 S2) (?v1 S2) (?v2 S2)) (let ((?v_0 (f5 f7 ?v2))) (=> (= (f23 (f24 ?v0) ?v1) f1) (=> (= (f23 (f24 f25) ?v2) f1) (= (f23 (f24 (f4 ?v_0 ?v0)) (f4 ?v_0 ?v1)) f1))))))
(assert (forall ((?v0 S2)) (not (= (f4 (f5 f6 (f4 (f5 f6 f13) ?v0)) ?v0) f25))))
(assert (forall ((?v0 S2)) (= (f26 (f27 f28 ?v0) (f20 f21 (f4 f9 (f4 f10 f11)))) (f4 (f5 f7 ?v0) ?v0))))
(assert (forall ((?v0 S6)) (= (f16 (f17 f32 ?v0) (f20 f21 (f4 f9 (f4 f10 f11)))) (f16 (f17 f22 ?v0) ?v0))))
(assert (= (f26 (f27 f28 f13) (f20 f21 (f4 f9 (f4 f10 f11)))) f13))
(assert (= (f16 (f17 f32 f19) (f20 f21 (f4 f9 (f4 f10 f11)))) f19))
(assert (forall ((?v0 S2)) (let ((?v_1 (f4 f10 f11)) (?v_0 (f27 f28 ?v0))) (= (f4 (f5 f7 ?v0) (f26 ?v_0 (f20 f21 (f4 f9 ?v_1)))) (f26 ?v_0 (f20 f21 (f4 f10 ?v_1)))))))
(assert (forall ((?v0 S2) (?v1 S2)) (let ((?v_0 (f4 f8 f31))) (= (= (f4 (f5 f7 ?v0) ?v1) f13) (or (and (= ?v0 f13) (= ?v1 f13)) (and (= ?v0 ?v_0) (= ?v1 ?v_0)))))))
(assert (forall ((?v0 S2) (?v1 S2)) (=> (= (f4 (f5 f7 ?v0) ?v1) f13) (or (= ?v0 f13) (= ?v0 (f4 f8 f31))))))
(assert (forall ((?v0 S2)) (let ((?v_0 (f4 f8 ?v0))) (= (f4 f8 (f4 f9 ?v0)) (f4 (f5 f6 (f4 (f5 f6 f25) ?v_0)) ?v_0)))))
(assert (forall ((?v0 S2) (?v1 S2)) (=> (= (f23 (f24 f25) ?v0) f1) (= (= (f4 (f5 f7 ?v0) ?v1) f13) (and (= ?v0 f13) (= ?v1 f13))))))
(assert (forall ((?v0 S2)) (= (= (f23 (f24 (f4 (f5 f6 (f4 (f5 f6 f13) ?v0)) ?v0)) f25) f1) (= (f23 (f24 ?v0) f25) f1))))
(assert (forall ((?v0 S2)) (let ((?v_0 (f4 f8 ?v0))) (= (f26 (f27 f28 ?v_0) (f20 f21 (f4 f9 (f4 f10 f11)))) (f4 (f5 f7 ?v_0) ?v_0)))))
(assert (forall ((?v0 S2)) (let ((?v_0 (f20 f21 ?v0))) (= (f16 (f17 f32 ?v_0) (f20 f21 (f4 f9 (f4 f10 f11)))) (f16 (f17 f22 ?v_0) ?v_0)))))
(assert (forall ((?v0 S2) (?v1 S2)) (let ((?v_1 (f4 f9 (f4 f10 f11)))) (let ((?v_0 (f20 f21 ?v_1))) (= (f26 (f27 f28 (f4 (f5 f6 ?v0) ?v1)) ?v_0) (f4 (f5 f6 (f4 (f5 f6 (f26 (f27 f28 ?v0) ?v_0)) (f26 (f27 f28 ?v1) ?v_0))) (f4 (f5 f7 (f4 (f5 f7 (f4 f8 ?v_1)) ?v0)) ?v1)))))))
(assert (forall ((?v0 S6) (?v1 S6)) (let ((?v_0 (f20 f21 (f4 f9 (f4 f10 f11))))) (= (f16 (f17 f32 (f16 (f17 f18 ?v0) ?v1)) ?v_0) (f16 (f17 f18 (f16 (f17 f18 (f16 (f17 f32 ?v0) ?v_0)) (f16 (f17 f32 ?v1) ?v_0))) (f16 (f17 f22 (f16 (f17 f22 ?v_0) ?v0)) ?v1))))))
(assert (forall ((?v0 S2)) (= (= (f23 (f24 f25) (f4 f8 ?v0)) f1) (= (f23 (f24 f11) ?v0) f1))))
(assert (forall ((?v0 S2)) (= (= (f23 (f24 (f4 f8 ?v0)) f25) f1) (= (f23 (f24 ?v0) f11) f1))))
(assert (forall ((?v0 S2) (?v1 S2)) (let ((?v_1 (f4 f9 (f4 f10 f11)))) (let ((?v_0 (f20 f21 ?v_1))) (= (f26 (f27 f28 (f4 (f5 f6 ?v0) ?v1)) ?v_0) (f4 (f5 f6 (f4 (f5 f6 (f26 (f27 f28 ?v0) ?v_0)) (f4 (f5 f7 (f4 (f5 f7 (f4 f8 ?v_1)) ?v0)) ?v1))) (f26 (f27 f28 ?v1) ?v_0)))))))
(assert (forall ((?v0 S2) (?v1 S2)) (let ((?v_3 (f4 f10 f11))) (let ((?v_5 (f20 f21 (f4 f9 ?v_3))) (?v_1 (f4 f10 ?v_3))) (let ((?v_0 (f20 f21 ?v_1)) (?v_2 (f27 f28 ?v0)) (?v_4 (f5 f7 (f4 f8 ?v_1))) (?v_6 (f27 f28 ?v1))) (= (f26 (f27 f28 (f4 (f5 f6 ?v0) ?v1)) ?v_0) (f4 (f5 f6 (f4 (f5 f6 (f4 (f5 f6 (f26 ?v_2 ?v_0)) (f4 (f5 f7 (f4 ?v_4 (f26 ?v_2 ?v_5))) ?v1))) (f4 (f5 f7 (f4 ?v_4 ?v0)) (f26 ?v_6 ?v_5)))) (f26 ?v_6 ?v_0))))))))
(assert (forall ((?v0 S2)) (let ((?v_0 (f4 (f5 f6 (f4 (f5 f7 (f4 f8 (f4 f9 (f4 f9 (f4 f10 f11))))) ?v0)) f13))) (=> (= (f15 ?v_0) f1) (= (f4 (f5 f30 (f4 f8 f31)) ?v_0) f13)))))
(assert (= f19 (f20 f21 (f4 f10 f11))))
(assert (= (f20 f21 (f4 f10 f11)) f19))
(assert (let ((?v_1 (f4 (f5 f6 (f4 (f5 f7 (f4 f8 (f4 f9 (f4 f9 (f4 f10 f11))))) f12)) f13)) (?v_0 (f4 f8 f31))) (=> (not (= (f23 (f35 ?v_1) ?v_0) f1)) (not (= (f4 (f5 f30 ?v_0) ?v_1) f13)))))
(assert (= (f23 (f35 (f4 (f5 f6 (f4 (f5 f7 (f4 f8 (f4 f9 (f4 f9 (f4 f10 f11))))) f12)) f13)) (f4 f8 f31)) f1))
(assert (let ((?v_0 (f4 f9 (f4 f10 f11)))) (= (f23 (f36 (f37 (f26 (f27 f28 f29) (f20 f21 ?v_0))) (f4 f8 f31)) (f4 (f5 f6 (f4 (f5 f7 (f4 f8 (f4 f9 ?v_0))) f12)) f13)) f1)))
(assert (let ((?v_0 (f4 f9 (f4 f10 f11)))) (= (f23 (f38 (f4 (f5 f6 (f4 (f5 f7 (f4 f8 (f4 f9 ?v_0))) f12)) f13)) (f4 (f5 f6 (f26 (f27 f28 f29) (f20 f21 ?v_0))) f13)) f1)))
(assert (let ((?v_0 (f26 (f27 f28 f29) (f20 f21 (f4 f9 (f4 f10 f11)))))) (= (f4 (f5 f39 ?v_0) (f4 f8 f31)) (f4 (f5 f6 ?v_0) f13))))
(assert (let ((?v_0 (f4 f9 (f4 f10 f11)))) (= (f23 (f36 (f37 (f26 (f27 f28 f40) (f20 f21 ?v_0))) (f4 f8 f31)) (f4 (f5 f6 (f4 (f5 f7 (f4 f8 (f4 f9 ?v_0))) f12)) f13)) f1)))
(assert (let ((?v_0 (f4 f9 (f4 f10 f11)))) (= (f23 (f38 (f4 (f5 f6 (f4 (f5 f7 (f4 f8 (f4 f9 ?v_0))) f12)) f13)) (f4 (f5 f39 (f26 (f27 f28 f29) (f20 f21 ?v_0))) (f4 f8 f31))) f1)))
(assert (=> (forall ((?v0 S2)) (let ((?v_0 (f4 f9 (f4 f10 f11)))) (=> (= (f23 (f36 (f37 (f26 (f27 f28 ?v0) (f20 f21 ?v_0))) (f4 f8 f31)) (f4 (f5 f6 (f4 (f5 f7 (f4 f8 (f4 f9 ?v_0))) f12)) f13)) f1) false))) false))
(assert (forall ((?v0 S2) (?v1 S2)) (= (f4 f8 (f4 (f5 f39 ?v0) ?v1)) (f4 (f5 f39 (f4 f8 ?v0)) (f4 f8 ?v1)))))
(assert (forall ((?v0 S2) (?v1 S2) (?v2 S2)) (let ((?v_0 (f38 ?v0))) (=> (= (f23 ?v_0 (f4 (f5 f39 ?v1) ?v2)) f1) (=> (= (f23 ?v_0 ?v2) f1) (= (f23 ?v_0 ?v1) f1))))))
(assert (forall ((?v0 S2)) (= (f4 (f5 f39 ?v0) f11) ?v0)))
(assert (forall ((?v0 S2) (?v1 S2)) (= (f4 (f5 f39 (f4 f9 ?v0)) (f4 f9 ?v1)) (f4 f9 (f4 (f5 f39 ?v0) ?v1)))))
(assert (forall ((?v0 S2) (?v1 S2) (?v2 S2)) (= (f4 (f5 f7 (f4 (f5 f39 ?v0) ?v1)) ?v2) (f4 (f5 f39 (f4 (f5 f7 ?v0) ?v2)) (f4 (f5 f7 ?v1) ?v2)))))
(assert (forall ((?v0 S2) (?v1 S2) (?v2 S2)) (let ((?v_0 (f5 f7 ?v0))) (= (f4 ?v_0 (f4 (f5 f39 ?v1) ?v2)) (f4 (f5 f39 (f4 ?v_0 ?v1)) (f4 ?v_0 ?v2))))))
(assert (forall ((?v0 S2) (?v1 S2) (?v2 S2)) (let ((?v_0 (f4 f8 ?v2))) (= (f4 (f5 f7 (f4 (f5 f39 ?v0) ?v1)) ?v_0) (f4 (f5 f39 (f4 (f5 f7 ?v0) ?v_0)) (f4 (f5 f7 ?v1) ?v_0))))))
(assert (forall ((?v0 S2) (?v1 S2) (?v2 S2)) (let ((?v_0 (f5 f7 (f4 f8 ?v0)))) (= (f4 ?v_0 (f4 (f5 f39 ?v1) ?v2)) (f4 (f5 f39 (f4 ?v_0 ?v1)) (f4 ?v_0 ?v2))))))
(assert (forall ((?v0 S2) (?v1 S2)) (=> (= (f23 (f24 f25) ?v0) f1) (=> (= (f23 (f24 ?v0) ?v1) f1) (not (= (f23 (f38 ?v1) ?v0) f1))))))
(assert (forall ((?v0 S2) (?v1 S2) (?v2 S2)) (let ((?v_0 (f5 f7 ?v0))) (=> (= (f23 (f38 (f4 ?v_0 ?v1)) (f4 ?v_0 ?v2)) f1) (=> (not (= ?v0 f25)) (= (f23 (f38 ?v1) ?v2) f1))))))
(assert (forall ((?v0 S2) (?v1 S2) (?v2 S2) (?v3 S2) (?v4 S2)) (let ((?v_0 (f38 ?v0)) (?v_1 (f5 f6 ?v2))) (=> (= (f23 ?v_0 ?v1) f1) (= (= (f23 ?v_0 (f4 ?v_1 ?v3)) f1) (= (f23 ?v_0 (f4 (f5 f6 (f4 ?v_1 (f4 (f5 f7 ?v4) ?v1))) ?v3)) f1))))))
(assert (forall ((?v0 S2) (?v1 S2) (?v2 S2)) (let ((?v_0 (f38 ?v0))) (= (= (f23 ?v_0 (f4 (f5 f6 ?v1) (f4 (f5 f7 ?v0) ?v2))) f1) (= (f23 ?v_0 ?v1) f1)))))
(assert (forall ((?v0 S2) (?v1 S2)) (= (f4 (f5 f39 (f4 f10 ?v0)) (f4 f10 ?v1)) (f4 f9 (f4 (f5 f39 ?v0) ?v1)))))
(assert (forall ((?v0 S2) (?v1 S2)) (= (f4 (f5 f39 (f4 f10 ?v0)) (f4 f9 ?v1)) (f4 f10 (f4 (f5 f39 ?v0) ?v1)))))
(assert (forall ((?v0 S2)) (let ((?v_0 (f5 f39 f11))) (= (f4 ?v_0 (f4 f9 ?v0)) (f4 f9 (f4 ?v_0 ?v0))))))
(assert (forall ((?v0 S2) (?v1 S2)) (= (= (f23 (f24 ?v0) ?v1) f1) (= (f23 (f24 (f4 (f5 f39 ?v0) ?v1)) f25) f1))))
(assert (forall ((?v0 S2) (?v1 S2) (?v2 S6)) (let ((?v_0 (f38 ?v0))) (=> (= (f15 ?v0) f1) (=> (= (f23 ?v_0 (f26 (f27 f28 ?v1) ?v2)) f1) (= (f23 ?v_0 ?v1) f1))))))
(assert (= f33 (f20 f21 f11)))
(assert (= (f20 f21 f11) f33))
(assert (forall ((?v0 S2) (?v1 S2) (?v2 S2)) (= (f4 (f5 f6 (f4 f8 ?v0)) (f4 (f5 f39 (f4 f8 ?v1)) ?v2)) (f4 (f5 f39 (f4 f8 (f4 (f5 f6 ?v0) ?v1))) ?v2))))
(assert (forall ((?v0 S2)) (= (f4 (f5 f39 f11) (f4 f10 ?v0)) (f4 f10 (f4 (f5 f39 f31) ?v0)))))
(assert (forall ((?v0 S2)) (let ((?v_0 (f5 f39 f31))) (= (f4 ?v_0 (f4 f10 ?v0)) (f4 f9 (f4 ?v_0 ?v0))))))
(assert (forall ((?v0 S2)) (let ((?v_0 (f5 f39 f31))) (= (f4 ?v_0 (f4 f9 ?v0)) (f4 f10 (f4 ?v_0 ?v0))))))
(assert (forall ((?v0 S2) (?v1 S2) (?v2 S6) (?v3 S2)) (let ((?v_0 (f38 (f26 (f27 f28 ?v0) ?v2)))) (=> (= (f15 ?v0) f1) (=> (not (= (f23 (f38 ?v0) ?v1) f1)) (=> (= (f23 ?v_0 (f4 (f5 f7 ?v1) ?v3)) f1) (= (f23 ?v_0 ?v3) f1)))))))
(assert (forall ((?v0 S2) (?v1 S2) (?v2 S6) (?v3 S2)) (let ((?v_0 (f38 (f26 (f27 f28 ?v0) ?v2)))) (=> (= (f15 ?v0) f1) (=> (not (= (f23 (f38 ?v0) ?v1) f1)) (=> (= (f23 ?v_0 (f4 (f5 f7 ?v3) ?v1)) f1) (= (f23 ?v_0 ?v3) f1)))))))
(assert (forall ((?v0 S2)) (= (= (f34 f33 (f20 f21 ?v0)) f1) (= (f23 (f24 f11) ?v0) f1))))
(assert (forall ((?v0 S2) (?v1 S2)) (= (f16 (f17 f22 (f20 f21 ?v0)) (f20 f21 ?v1)) (ite (= (f23 (f24 ?v0) f11) f1) f33 (f20 f21 (f4 (f5 f7 ?v0) ?v1))))))
(assert (forall ((?v0 S2) (?v1 S2) (?v2 S6)) (= (f16 (f17 f22 (f20 f21 ?v0)) (f16 (f17 f22 (f20 f21 ?v1)) ?v2)) (ite (= (f23 (f24 ?v0) f11) f1) f33 (f16 (f17 f22 (f20 f21 (f4 (f5 f7 ?v0) ?v1))) ?v2)))))
(assert (forall ((?v0 S2) (?v1 S2)) (let ((?v_0 (f20 f21 (f4 f9 (f4 f10 f11))))) (= (f4 (f5 f7 (f4 (f5 f6 ?v0) ?v1)) (f4 (f5 f39 ?v0) ?v1)) (f4 (f5 f39 (f26 (f27 f28 ?v0) ?v_0)) (f26 (f27 f28 ?v1) ?v_0))))))
(assert (forall ((?v0 S2) (?v1 S2)) (let ((?v_1 (f4 f9 (f4 f10 f11)))) (let ((?v_0 (f20 f21 ?v_1))) (= (f26 (f27 f28 (f4 (f5 f39 ?v0) ?v1)) ?v_0) (f4 (f5 f39 (f4 (f5 f6 (f26 (f27 f28 ?v0) ?v_0)) (f26 (f27 f28 ?v1) ?v_0))) (f4 (f5 f7 (f4 (f5 f7 (f4 f8 ?v_1)) ?v0)) ?v1)))))))
(assert (forall ((?v0 S2) (?v1 S2)) (let ((?v_3 (f4 f10 f11))) (let ((?v_5 (f20 f21 (f4 f9 ?v_3))) (?v_1 (f4 f10 ?v_3))) (let ((?v_0 (f20 f21 ?v_1)) (?v_4 (f5 f7 (f4 f8 ?v_1))) (?v_2 (f27 f28 ?v0)) (?v_6 (f27 f28 ?v1))) (= (f26 (f27 f28 (f4 (f5 f39 ?v0) ?v1)) ?v_0) (f4 (f5 f39 (f4 (f5 f6 (f4 (f5 f39 (f26 ?v_2 ?v_0)) (f4 (f5 f7 (f4 ?v_4 (f26 ?v_2 ?v_5))) ?v1))) (f4 (f5 f7 (f4 ?v_4 ?v0)) (f26 ?v_6 ?v_5)))) (f26 ?v_6 ?v_0))))))))
(assert (forall ((?v0 S2) (?v1 S2)) (let ((?v_1 (f4 f9 (f4 f10 f11)))) (let ((?v_0 (f20 f21 ?v_1))) (= (f26 (f27 f28 (f4 (f5 f39 ?v0) ?v1)) ?v_0) (f4 (f5 f6 (f4 (f5 f39 (f26 (f27 f28 ?v0) ?v_0)) (f4 (f5 f7 (f4 (f5 f7 (f4 f8 ?v_1)) ?v0)) ?v1))) (f26 (f27 f28 ?v1) ?v_0)))))))
(assert (let ((?v_1 (f4 f9 (f4 f10 f11)))) (let ((?v_0 (f20 f21 ?v_1))) (= (f23 (f36 (f37 (f26 (f27 f28 f29) ?v_0)) (f26 (f27 f28 f40) ?v_0)) (f4 (f5 f6 (f4 (f5 f7 (f4 f8 (f4 f9 ?v_1))) f12)) f13)) f1))))
(assert (let ((?v_0 (f4 (f5 f6 (f4 (f5 f7 (f4 f8 (f4 f9 (f4 f9 (f4 f10 f11))))) f12)) f13))) (and (= (f23 (f41 f25) f29) f1) (and (= (f23 (f24 f29) ?v_0) f1) (= (f23 (f36 (f37 f40) f29) ?v_0) f1)))))
(assert (forall ((?v0 S2) (?v1 S6) (?v2 S6)) (let ((?v_0 (f27 f28 (f4 f8 f31)))) (let ((?v_1 (f26 ?v_0 ?v1)) (?v_2 (f26 ?v_0 ?v2))) (=> (= (f23 (f24 (f4 f8 (f4 f9 (f4 f10 f11)))) ?v0) f1) (=> (= (f23 (f36 (f37 ?v_1) ?v_2) ?v0) f1) (= ?v_1 ?v_2)))))))
(assert (= (f23 (f41 f13) f14) f1))
(assert (exists ((?v0 S2)) (let ((?v_0 (f4 (f5 f6 (f4 (f5 f7 (f4 f8 (f4 f9 (f4 f9 (f4 f10 f11))))) f12)) f13))) (and (and (= (f23 (f41 f25) ?v0) f1) (and (= (f23 (f24 ?v0) ?v_0) f1) (= (f23 (f36 (f37 f40) ?v0) ?v_0) f1))) (forall ((?v1 S2)) (=> (and (= (f23 (f41 f25) ?v1) f1) (and (= (f23 (f24 ?v1) ?v_0) f1) (= (f23 (f36 (f37 f40) ?v1) ?v_0) f1))) (= ?v1 ?v0)))))))
(assert (=> (forall ((?v0 S2)) (let ((?v_0 (f4 (f5 f6 (f4 (f5 f7 (f4 f8 (f4 f9 (f4 f9 (f4 f10 f11))))) f12)) f13))) (=> (and (= (f23 (f41 f25) ?v0) f1) (and (= (f23 (f24 ?v0) ?v_0) f1) (= (f23 (f36 (f37 f40) ?v0) ?v_0) f1))) false))) false))
(assert (forall ((?v0 S2) (?v1 S2)) (= (= (f23 (f41 (f4 f10 ?v0)) (f4 f10 ?v1)) f1) (= (f23 (f41 ?v0) ?v1) f1))))
(assert (forall ((?v0 S2) (?v1 S2)) (= (= (f23 (f41 (f4 f10 ?v0)) (f4 f10 ?v1)) f1) (= (f23 (f41 ?v0) ?v1) f1))))
(assert (= (= (f23 (f41 f11) f11) f1) true))
(assert (forall ((?v0 S2) (?v1 S2)) (= (= (f23 (f41 (f4 f9 ?v0)) (f4 f9 ?v1)) f1) (= (f23 (f41 ?v0) ?v1) f1))))
(assert (forall ((?v0 S2) (?v1 S2)) (= (= (f23 (f41 (f4 f9 ?v0)) (f4 f9 ?v1)) f1) (= (f23 (f41 ?v0) ?v1) f1))))
(assert (forall ((?v0 S2) (?v1 S2)) (= (= (f23 (f24 ?v0) ?v1) f1) (and (= (f23 (f41 ?v0) ?v1) f1) (not (= ?v0 ?v1))))))
(assert (forall ((?v0 S2) (?v1 S2)) (= (= (f23 (f41 (f4 f8 ?v0)) (f4 f8 ?v1)) f1) (= (f23 (f41 ?v0) ?v1) f1))))
(assert (forall ((?v0 S2) (?v1 S2) (?v2 S2)) (let ((?v_0 (f5 f6 ?v2))) (=> (= (f23 (f41 ?v0) ?v1) f1) (= (f23 (f41 (f4 ?v_0 ?v0)) (f4 ?v_0 ?v1)) f1)))))
(assert (= (= (f23 (f41 f31) f31) f1) true))
(assert (forall ((?v0 S2)) (= (= (f23 (f41 (f4 f8 ?v0)) f25) f1) (= (f23 (f41 ?v0) f11) f1))))
(assert (forall ((?v0 S2)) (= (= (f23 (f41 f25) (f4 f8 ?v0)) f1) (= (f23 (f41 f11) ?v0) f1))))
(assert (forall ((?v0 S2)) (= (= (f23 (f41 (f4 f8 ?v0)) f13) f1) (= (f23 (f41 ?v0) (f4 f10 f11)) f1))))
(assert (forall ((?v0 S2)) (= (= (f23 (f41 f13) (f4 f8 ?v0)) f1) (= (f23 (f41 (f4 f10 f11)) ?v0) f1))))
(assert (forall ((?v0 S2)) (= (f23 (f41 ?v0) ?v0) f1)))
(assert (forall ((?v0 S2) (?v1 S2)) (or (= (f23 (f41 ?v0) ?v1) f1) (= (f23 (f41 ?v1) ?v0) f1))))
(assert (forall ((?v0 S2) (?v1 S2) (?v2 S2)) (let ((?v_0 (f41 ?v0))) (=> (= (f23 ?v_0 ?v1) f1) (=> (= (f23 (f41 ?v1) ?v2) f1) (= (f23 ?v_0 ?v2) f1))))))
(assert (forall ((?v0 S2) (?v1 S2)) (=> (= (f23 (f41 ?v0) ?v1) f1) (=> (= (f23 (f41 ?v1) ?v0) f1) (= ?v0 ?v1)))))
(assert (forall ((?v0 S2) (?v1 S2)) (= (= (f23 (f41 (f4 f8 ?v0)) (f4 f8 ?v1)) f1) (= (f23 (f41 ?v0) ?v1) f1))))
(assert (forall ((?v0 S2) (?v1 S2)) (let ((?v_1 (f4 f8 ?v0)) (?v_0 (f4 f8 ?v1))) (= (= (f23 (f41 ?v_1) ?v_0) f1) (not (= (f23 (f24 ?v_0) ?v_1) f1))))))
(assert (forall ((?v0 S2) (?v1 S2)) (let ((?v_1 (f20 f21 ?v0)) (?v_0 (f20 f21 ?v1))) (= (= (f42 ?v_1 ?v_0) f1) (not (= (f34 ?v_0 ?v_1) f1))))))
(assert (forall ((?v0 S6) (?v1 S6)) (let ((?v_0 (f17 f32 ?v0))) (= (f16 ?v_0 ?v1) (ite (= ?v1 f33) f19 (f16 (f17 f22 ?v0) (f16 ?v_0 (f16 (f17 f43 ?v1) f19))))))))
(assert (forall ((?v0 S2)) (let ((?v_0 (f41 f11))) (= (= (f23 ?v_0 (f4 f10 ?v0)) f1) (= (f23 ?v_0 ?v0) f1)))))
(assert (forall ((?v0 S2) (?v1 S2)) (= (= (f23 (f41 (f4 f9 ?v0)) (f4 f10 ?v1)) f1) (= (f23 (f41 ?v0) ?v1) f1))))
(assert (forall ((?v0 S2) (?v1 S2)) (= (= (f23 (f41 (f4 f9 ?v0)) (f4 f10 ?v1)) f1) (= (f23 (f41 ?v0) ?v1) f1))))
(assert (forall ((?v0 S2)) (let ((?v_0 (f41 f11))) (= (= (f23 ?v_0 (f4 f9 ?v0)) f1) (= (f23 ?v_0 ?v0) f1)))))
(assert (forall ((?v0 S2)) (= (= (f23 (f41 (f4 f9 ?v0)) f11) f1) (= (f23 (f41 ?v0) f11) f1))))
(assert (forall ((?v0 S2)) (= (= (f20 f21 ?v0) f33) (= (f23 (f41 ?v0) f11) f1))))
(assert (forall ((?v0 S2)) (= (= f33 (f20 f21 ?v0)) (= (f23 (f41 ?v0) f11) f1))))
(assert (forall ((?v0 S2) (?v1 S2) (?v2 S2) (?v3 S2)) (=> (= (f23 (f24 ?v0) ?v1) f1) (=> (= (f23 (f41 ?v2) ?v3) f1) (= (f23 (f24 (f4 (f5 f6 ?v0) ?v2)) (f4 (f5 f6 ?v1) ?v3)) f1)))))
(assert (forall ((?v0 S2)) (= (= (f23 (f41 (f4 f10 ?v0)) f31) f1) (= (f23 (f41 ?v0) f31) f1))))
(assert (forall ((?v0 S2)) (let ((?v_0 (f41 f31))) (= (= (f23 ?v_0 (f4 f10 ?v0)) f1) (= (f23 ?v_0 ?v0) f1)))))
(assert (= (= (f23 (f41 f11) f31) f1) false))
(assert (= (= (f23 (f41 f31) f11) f1) true))
(assert (forall ((?v0 S2)) (= (= (f23 (f41 (f4 f9 ?v0)) f31) f1) (= (f23 (f41 ?v0) f31) f1))))
(assert (forall ((?v0 S2) (?v1 S2)) (let ((?v_0 (f41 f25))) (=> (= (f23 ?v_0 ?v0) f1) (=> (= (f23 ?v_0 ?v1) f1) (=> (= (f23 (f38 ?v0) ?v1) f1) (=> (= (f23 (f38 ?v1) ?v0) f1) (= ?v0 ?v1))))))))
(assert (forall ((?v0 S2) (?v1 S2)) (= (f23 (f41 f25) (f4 (f5 f6 (f4 (f5 f7 ?v0) ?v0)) (f4 (f5 f7 ?v1) ?v1))) f1)))
(assert (forall ((?v0 S2) (?v1 S2)) (= (= (f23 (f41 (f4 (f5 f6 (f4 (f5 f7 ?v0) ?v0)) (f4 (f5 f7 ?v1) ?v1))) f25) f1) (and (= ?v0 f25) (= ?v1 f25)))))
(assert (forall ((?v0 S6) (?v1 S6)) (= (f16 (f17 f22 ?v0) ?v1) (ite (= ?v0 f33) f33 (f16 (f17 f18 ?v1) (f16 (f17 f22 (f16 (f17 f43 ?v0) f19)) ?v1))))))
(assert (forall ((?v0 S2)) (= (= (f23 (f24 f11) (f4 f10 ?v0)) f1) (= (f23 (f41 f11) ?v0) f1))))
(assert (forall ((?v0 S2)) (= (= (f23 (f41 (f4 f10 ?v0)) f11) f1) (= (f23 (f24 ?v0) f11) f1))))
(assert (forall ((?v0 S2) (?v1 S2)) (= (= (f23 (f24 (f4 f9 ?v0)) (f4 f10 ?v1)) f1) (= (f23 (f41 ?v0) ?v1) f1))))
(assert (forall ((?v0 S2) (?v1 S2)) (= (= (f23 (f24 (f4 f9 ?v0)) (f4 f10 ?v1)) f1) (= (f23 (f41 ?v0) ?v1) f1))))
(assert (forall ((?v0 S2) (?v1 S2)) (= (= (f23 (f41 (f4 f10 ?v0)) (f4 f9 ?v1)) f1) (= (f23 (f24 ?v0) ?v1) f1))))
(assert (forall ((?v0 S2) (?v1 S2)) (= (= (f23 (f41 (f4 f10 ?v0)) (f4 f9 ?v1)) f1) (= (f23 (f24 ?v0) ?v1) f1))))
(assert (forall ((?v0 S2)) (= (= (f23 (f41 f13) ?v0) f1) (= (f23 (f24 f25) ?v0) f1))))
(assert (forall ((?v0 S2) (?v1 S2)) (= (= (f23 (f24 ?v0) (f4 (f5 f6 ?v1) f13)) f1) (= (f23 (f41 ?v0) ?v1) f1))))
(check-sat)
(exit)
